20
38	0	73	41	77
50	48	384	10	57
9	381	103	23	79
48	327	374	75	39
49	476	211	53	53
16	116	373	48	33
12	93	228	85	86
2	167	89	80	41
20	271	99	25	5
35	266	240	96	35
41	129	97	82	39
1	241	116	48	7
11	91	109	15	58
19	115	281	68	20
12	419	365	87	28
13	383	302	8	56
43	349	215	7	62
42	10	272	3	70
1	236	370	94	66
18	311	395	11	32
